38	48	83	19	21	14	4	16	47	91
72	31	83	84	80	26	93	58	99	5
47	85	86	64	76	73	75	54	26	48
40	67	81	28	59	68	86	32	84	61
35	26	84	59	59	20	94	54	80	35
6	50	45	46	52	42	4	63	46	35
89	95	9	7	76	73	86	46	28	100
97	10	44	33	56	37	9	68	30	21
42	61	68	97	75	77	2	12	42	44
96	28	37	29	34	5	73	11	31	46
